0 0 0 0
0 1 0 0
0 2 2 0
0 3 0 0
0 4 0 1
0 5 2 1
0 6 1 1
0 7 0 8
0 8 0 8
0 9 0 11
0 10 2 10
0 11 0 21
0 12 0 19
0 13 0 2
0 14 0 8
0 15 0 18
0 16 1 11
0 17 0 27
0 18 1 5
0 19 0 27
0 20 0 15
0 21 0 36
0 22 1 22
0 23 2 27
0 24 1 32
0 25 2 20
0 26 1 10
0 27 0 35
0 28 0 37
0 29 1 29
0 30 0 38
0 31 0 41
